Test: fpga13_9_sat.cnf
Options: -no-inverting-opt -sym-var-bump
WARNING: for repeatability, setting FPU to use double precision
============================[ Problem Statistics ]=============================
|                                                                             |
|  Number of symmetries:           26                                         |
|  Number of invertingSyms:         0                                         |
|  Number of variables:           176                                         |
|  Number of clauses:             759                                         |
|  Parse time:                   0.00 s                                       |
|                                                                             |
============================[ Search Statistics ]==============================
| Conflicts |          ORIGINAL         |          LEARNT          | Progress |
|           |    Vars  Clauses Literals |    Limit  Clauses Lit/Cl |          |
===============================================================================
|       100 |     176      759     2031 |      278      180     40 |  0.003 % |
|       250 |     176      759     2031 |      306      271     43 |  0.003 % |
===============================================================================
restarts              : 4
conflicts             : 413            (34417 /sec)
symconflicts          : 64             (5333 /sec)
decisions             : 1123           (0.00 % random) (93583 /sec)
propagations          : 8158           (679833 /sec)
sympropagations       : 336            (28000 /sec)
conflict literals     : 18603          (3.89 % deleted)
literals     : 18603          (3.89 % deleted)

HEURISTIC USAGES
random                : 0           
activity w/ lookahead : 0           
activity no lookahead : 0           
original sp           : 1122        
sym count             : 0           

Memory used           : 5.00 MB
CPU time              : 0.012 s

SATISFIABLE
